SumColouring/JavaBacktracker/RandomInstances/20_0.55_3.col
c File: instances/20_0.55_3.col
c
c Description: Random graph of size 20 vertices and P(0.5499999999999999) of edges between any two vertices.
p col 20 190
e 1 3
e 1 5
e 1 6
e 1 7
e 1 8
e 1 11
e 1 12
e 1 13
e 1 14
e 1 16
e 1 18
e 1 19
e 2 3
e 2 4
e 2 7
e 2 12
e 2 14
e 2 16
e 3 4
e 3 5
e 3 6
e 3 9
e 3 12
e 3 13
e 3 14
e 3 16
e 3 17
e 4 6
e 4 7
e 4 8
e 4 9
e 4 10
e 4 11
e 4 12
e 4 13
e 4 16
e 4 19
e 5 8
e 5 10
e 5 12
e 5 14
e 5 15
e 5 17
e 5 19
e 5 20
e 6 7
e 6 8
e 6 12
e 6 16
e 6 17
e 7 9
e 7 12
e 7 14
e 7 16
e 7 17
e 7 20
e 8 9
e 8 10
e 8 12
e 8 13
e 8 15
e 8 16
e 8 17
e 9 11
e 9 12
e 9 13
e 9 15
e 9 16
e 9 17
e 9 19
e 10 11
e 10 13
e 10 14
e 10 15
e 10 18
e 11 12
e 11 14
e 11 15
e 11 16
e 11 17
e 11 18
e 11 19
e 12 13
e 12 14
e 12 15
e 12 16
e 12 17
e 12 18
e 12 20
e 13 17
e 13 19
e 13 20
e 14 15
e 14 18
e 14 19
e 14 20
e 15 17
e 15 19
e 15 20
e 16 19
e 16 20
e 17 18
e 17 19
e 17 20
e 18 19
e 18 20