SumColouring/MiniZinc model/Experiments/20_0.55_3.col.dzn
% Data file generated from RandomInstances/20_0.55_3.col DIMACS file
size = 20;

chi = 6;

adjacency = [|0,0,1,0,1,1,1,1,0,0,1,1,1,1,0,1,0,1,1,0,
|0,0,1,1,0,0,1,0,0,0,0,1,0,1,0,1,0,0,0,0,
|1,1,0,1,1,1,0,0,1,0,0,1,1,1,0,1,1,0,0,0,
|0,1,1,0,0,1,1,1,1,1,1,1,1,0,0,1,0,0,1,0,
|1,0,1,0,0,0,0,1,0,1,0,1,0,1,1,0,1,0,1,1,
|1,0,1,1,0,0,1,1,0,0,0,1,0,0,0,1,1,0,0,0,
|1,1,0,1,0,1,0,0,1,0,0,1,0,1,0,1,1,0,0,1,
|1,0,0,1,1,1,0,0,1,1,0,1,1,0,1,1,1,0,0,0,
|0,0,1,1,0,0,1,1,0,0,1,1,1,0,1,1,1,0,1,0,
|0,0,0,1,1,0,0,1,0,0,1,0,1,1,1,0,0,1,0,0,
|1,0,0,1,0,0,0,0,1,1,0,1,0,1,1,1,1,1,1,0,
|1,1,1,1,1,1,1,1,1,0,1,0,1,1,1,1,1,1,0,1,
|1,0,1,1,0,0,0,1,1,1,0,1,0,0,0,0,1,0,1,1,
|1,1,1,0,1,0,1,0,0,1,1,1,0,0,1,0,0,1,1,1,
|0,0,0,0,1,0,0,1,1,1,1,1,0,1,0,0,1,0,1,1,
|1,1,1,1,0,1,1,1,1,0,1,1,0,0,0,0,0,0,1,1,
|0,0,1,0,1,1,1,1,1,0,1,1,1,0,1,0,0,1,1,1,
|1,0,0,0,0,0,0,0,0,1,1,1,0,1,0,0,1,0,1,1,
|1,0,0,1,1,0,0,0,1,0,1,0,1,1,1,1,1,1,0,0,
|0,0,0,0,1,0,1,0,0,0,0,1,1,1,1,1,1,1,0,0,
|];